(declare-rel inv2 (Int Int Int Int))
(declare-rel fail ())
(declare-var A Int)
(declare-var B Int)
(declare-var C Int)
(declare-var D Int)
(declare-var E Int)
(rule (=> (and (= E 0) (> A 0) (>= 2 A) (= C (* 4999 A)) (= B (* 4998 A)))
    (inv2 E C B A)))
(rule (let ((a!1 (and (inv2 E C B A) (= D (ite (= E C) 1 (+ E 2))))))
  (=> a!1 (inv2 D C B A))))
(rule (=> (and (inv2 E C B A) (= 0 (mod E 4)) (not (<= E B))) fail))
(query fail)

